# Solution for model GasLib-40
# Objective value = 1.0906084454879343e+01
loadshed[innode_1] 0
loadshed[innode_2] 0
loadshed[innode_3] 0
loadshed[innode_4] 0
loadshed[innode_5] 0
loadshed[innode_6] 0
loadshed[innode_7] 0
loadshed[innode_8] 0
loadshed[source_1] -3.1182259739903251e-01
loadshed[source_2] 8.1700282284475456e-02
loadshed[source_3] 2.9910874874080562e-01
loadshed[sink_1] 0
loadshed[sink_2] 0
loadshed[sink_3] 0
loadshed[sink_4] 0
loadshed[sink_5] 0
loadshed[sink_6] 0
loadshed[sink_7] 0
loadshed[sink_8] 0
loadshed[sink_9] 0
loadshed[sink_10] 0
loadshed[sink_11] 0
loadshed[sink_12] 6.6686885838752663e-01
loadshed[sink_13] 0
loadshed[sink_14] 0
loadshed[sink_15] 0
loadshed[sink_16] 0
loadshed[sink_17] 0
loadshed[sink_18] 0
loadshed[sink_19] 0
loadshed[sink_20] 0
loadshed[sink_21] 0
loadshed[sink_22] 0
loadshed[sink_23] 0
loadshed[sink_24] 0
loadshed[sink_25] 0
loadshed[sink_26] 0
loadshed[sink_27] 0
loadshed[sink_28] 0
loadshed[sink_29] 0
flow[source_1,sink_3] 207.386398817979
flow[innode_1,sink_16] 1.6354166666666970e+01
flow[innode_6,sink_13] 3.67507406308687
flow[sink_13,sink_14] -1.2679092603579798e+01
flow[sink_14,sink_10] -2.9033259270246617e+01
flow[sink_25,sink_26] 1.7609528664519362e+02
flow[sink_26,sink_9] 1.2374165576783361e+02
flow[sink_9,sink_18] 1.0738748910116693e+02
flow[sink_26,sink_4] 3.5999464210693354e+01
flow[sink_4,sink_20] -4.1956962233262743e+01
flow[sink_18,sink_6] 9.1033322434500263e+01
flow[sink_25,innode_8] -1.7467806548464262e+02
flow[sink_6,sink_7] 4.1970822434499496e+01
flow[sink_6,sink_22] 3.2708333333333641e+01
flow[sink_7,sink_24] 3.8156415545120666e+01
flow[sink_22,sink_1] 1.6354166666666970e+01
flow[sink_24,sink_21] 2.1802248878453995e+01
flow[sink_21,sink_12] 5.4480822117873258e+00
flow[sink_7,sink_5] -1.2539759777287586e+01
flow[sink_5,sink_17] -2.8893926443954115e+01
flow[sink_17,sink_4] -6.1602259777289191e+01
flow[sink_17,sink_8] 1.6354166666668334e+01
flow[sink_3,sink_23] 16.3541666666697
flow[sink_8,sink_20] 0
flow[sink_25,sink_20] 5.8311128899929571e+01
flow[sink_25,sink_15] -79.7575907902343
flow[sink_15,sink_29] 0
flow[sink_29,sink_28] 1.6354166666667879e+01
flow[sink_29,sink_2] 1.1246592412356765e+02
flow[sink_2,sink_15] 9.6111757456900975e+01
flow[sink_29,innode_7] -1.4517425745690218e+02
flow[innode_4,sink_19] 42.6040133404003
flow[sink_19,innode_3] 7.8095759270246845e+01
flow[innode_4,innode_5] 6.8200079263179973e+01
flow[sink_27,innode_5] -6.8200079263179973e+01
flow[sink_27,sink_19] 5.1845912596513308e+01
flow[sink_10,sink_11] 3.2708333333333641e+01
flow[sink_10,innode_2] 0
flow[sink_10,innode_3] -7.8095759270246845e+01
flow[innode_6,sink_25] -3.67507406308687
flow[sink_11,innode_1] 1.6354166666666970e+01
flow[sink_19,innode_2] 0
flow[source_3,innode_4] 1.1080409260358027e+02
flow[source_2,innode_7] 1.4517425745690218e+02
flow[sink_3,innode_8] 1.7467806548464262e+02
pressure[innode_1] 7.4804794146737493e+01
pressure[innode_2] 7.4956495454341038e+01
pressure[innode_3] 7.9114318648417111e+01
pressure[innode_4] 81.01325
pressure[innode_5] 8.0966338389281461e+01
pressure[innode_6] 7.3580832810707108e+01
pressure[innode_7] 81.01325
pressure[innode_8] 8.0320036493227420e+01
pressure[source_1] 81.01325
pressure[source_2] 81.01325
pressure[source_3] 81.01325
pressure[sink_1] 4.5354749934533579e+01
pressure[sink_2] 7.4281518548984309e+01
pressure[sink_3] 8.0320036493227420e+01
pressure[sink_4] 5.6601480136792766e+01
pressure[sink_5] 5.2094856226501875e+01
pressure[sink_6] 4.7455827544920950e+01
pressure[sink_7] 4.6879668196194274e+01
pressure[sink_8] 5.3630159699863825e+01
pressure[sink_9] 5.3772287721185982e+01
pressure[sink_10] 7.4956495454341038e+01
pressure[sink_11] 7.4804794146737493e+01
pressure[sink_12] 1.01325
pressure[sink_13] 7.3560572741559227e+01
pressure[sink_14] 7.3583263057793218e+01
pressure[sink_15] 7.3967734843577674e+01
pressure[sink_16] 7.3783144311919813e+01
pressure[sink_17] 5.4247244895277447e+01
pressure[sink_18] 4.9886688295742410e+01
pressure[sink_19] 7.9287252863935677e+01
pressure[sink_20] 5.9679637975451861e+01
pressure[sink_21] 2.9519758256548370e+00
pressure[sink_22] 4.6418519076888586e+01
pressure[sink_23] 8.0155318481567633e+01
pressure[sink_24] 3.1934154752786448e+00
pressure[sink_25] 7.3580832810707108e+01
pressure[sink_26] 61.178545187313
pressure[sink_27] 8.0400403751593345e+01
pressure[sink_28] 7.6835125058910876e+01
pressure[sink_29] 7.7130407332528051e+01
interdiction[source_1,sink_3] 0
interdiction[innode_1,sink_16] 0
interdiction[innode_6,sink_13] 0
interdiction[sink_13,sink_14] 0
interdiction[sink_14,sink_10] 0
interdiction[sink_25,sink_26] 0
interdiction[sink_26,sink_9] 0
interdiction[sink_9,sink_18] 0
interdiction[sink_26,sink_4] 0
interdiction[sink_4,sink_20] 0
interdiction[sink_18,sink_6] 0
interdiction[sink_25,innode_8] 0
interdiction[sink_6,sink_7] 0
interdiction[sink_6,sink_22] 0
interdiction[sink_7,sink_24] 0
interdiction[sink_22,sink_1] 0
interdiction[sink_24,sink_21] 0
interdiction[sink_21,sink_12] 0
interdiction[sink_7,sink_5] 0
interdiction[sink_5,sink_17] 0
interdiction[sink_17,sink_4] 0
interdiction[sink_17,sink_8] 0
interdiction[sink_3,sink_23] 0
interdiction[sink_8,sink_20] 1
interdiction[sink_25,sink_20] 0
interdiction[sink_25,sink_15] 0
interdiction[sink_15,sink_29] 1
interdiction[sink_29,sink_28] 0
interdiction[sink_29,sink_2] 0
interdiction[sink_2,sink_15] 0
interdiction[sink_29,innode_7] 0
interdiction[innode_4,sink_19] 0
interdiction[sink_19,innode_3] 0
interdiction[innode_4,innode_5] 0
interdiction[sink_27,innode_5] 0
interdiction[sink_27,sink_19] 0
interdiction[sink_10,sink_11] 0
interdiction[sink_10,innode_2] 0
interdiction[sink_10,innode_3] 0
interdiction[innode_6,sink_25] 0
interdiction[sink_11,innode_1] 0
interdiction[sink_19,innode_2] 1
interdiction[source_3,innode_4] 0
interdiction[source_2,innode_7] 0
interdiction[sink_3,innode_8] 0
WCcheckFlow[source_1,sink_3] 39
WCcheckFlow[innode_1,sink_16] 1
WCcheckFlow[innode_6,sink_13] 13
WCcheckFlow[sink_13,sink_14] 12
WCcheckFlow[sink_14,sink_10] 11
WCcheckFlow[sink_25,sink_26] 15
WCcheckFlow[sink_26,sink_9] 12
WCcheckFlow[sink_9,sink_18] 11
WCcheckFlow[sink_26,sink_4] 2
WCcheckFlow[sink_4,sink_20] 1
WCcheckFlow[sink_18,sink_6] 10
WCcheckFlow[sink_25,innode_8] -36
WCcheckFlow[sink_6,sink_7] 7
WCcheckFlow[sink_6,sink_22] 2
WCcheckFlow[sink_7,sink_24] 3
WCcheckFlow[sink_22,sink_1] 1
WCcheckFlow[sink_24,sink_21] 2
WCcheckFlow[sink_21,sink_12] 1
WCcheckFlow[sink_7,sink_5] 3
WCcheckFlow[sink_5,sink_17] 2
WCcheckFlow[sink_17,sink_4] 0
WCcheckFlow[sink_17,sink_8] 1
WCcheckFlow[sink_3,sink_23] 1
WCcheckFlow[sink_8,sink_20] 0
WCcheckFlow[sink_25,sink_20] 0
WCcheckFlow[sink_25,sink_15] 6
WCcheckFlow[sink_15,sink_29] 0
WCcheckFlow[sink_29,sink_28] 1
WCcheckFlow[sink_29,sink_2] -4
WCcheckFlow[sink_2,sink_15] -5
WCcheckFlow[sink_29,innode_7] 2
WCcheckFlow[innode_4,sink_19] -4
WCcheckFlow[sink_19,innode_3] -5
WCcheckFlow[innode_4,innode_5] 2
WCcheckFlow[sink_27,innode_5] -1
WCcheckFlow[sink_27,sink_19] 0
WCcheckFlow[sink_10,sink_11] 3
WCcheckFlow[sink_10,innode_2] 1
WCcheckFlow[sink_10,innode_3] 6
WCcheckFlow[innode_6,sink_25] -14
WCcheckFlow[sink_11,innode_1] 2
WCcheckFlow[sink_19,innode_2] 0
WCcheckFlow[source_3,innode_4] -1
WCcheckFlow[source_2,innode_7] -1
WCcheckFlow[sink_3,innode_8] 37
